NAME: tsp10_17
COMMENT: 10-tsp problem (Padberg/Rinaldi)
TYPE: TSP
DIMENSION: 10
EDGE_WEIGHT_TYPE : EUC_2D
NODE_COORD_SECTION
1 29 11
2 4 7
3 0 28
4 4 26
5 25 35
6 9 24
7 18 23
8 29 36
9 39 9
10 13 0
